caseWidth=10;
caseHeight=10;
caseCapacity=100;
n=20;
price=[37 67 25 51 15 45 80 24 57 6 50 74 99 95 57 31 22 52 33 76];
weight=[10 5 1 10 12 13 1 12 19 3 15 3 19 19 9 1 12 8 4 12];
side=[4 2 2 4 2 3 4 1 4 3 4 4 1 4 2 3 2 1 2 1];
